qe/outputs/qe/qe_queries_cbrdelay_obs/T=5,eliminate=[I_0,I_1,I_2,I_3,I_4,L_2,L_3,L_4,C,B,lhs=Q_4].smt2
; benchmark generated from python API
(set-info :status unknown)
(declare-fun S_0 () Real)
(declare-fun S_2 () Real)
(declare-fun S_4 () Real)
(declare-fun S_1 () Real)
(declare-fun A_4 () Real)
(declare-fun Q_4 () Real)
(declare-fun L_1 () Real)
(declare-fun A_1 () Real)
(declare-fun S_3 () Real)
(declare-fun A_2 () Real)
(declare-fun L_0 () Real)
(declare-fun A_0 () Real)
(declare-fun A_3 () Real)
(assert
 (let (($x34 (>= L_0 0.0)))
 (let ((?x2088 (* 4.0 L_1)))
 (let ((?x1323 (* 2.0 S_2)))
 (let ((?x2078 (* (- 4.0) A_1)))
 (let ((?x1549 (* 2.0 A_2)))
 (let ((?x1098 (* (- 2.0) A_4)))
 (let ((?x1271 (* 2.0 Q_4)))
 (let ((?x1283 (* 2.0 S_4)))
 (let (($x825 (= Q_4 0.0)))
 (let (($x393 (<= 0.0 (+ (* (- 1.0) L_1) L_0))))
 (let (($x114580 (or $x393 $x825 (not (<= 0.0 (+ ?x1283 ?x1271 ?x1098 ?x1549 ?x2078 ?x1323 ?x2088))))))
 (let ((?x1333 (* 2.0 L_0)))
 (let ((?x3496 (* 6.0 S_2)))
 (let ((?x1332 (* (- 2.0) A_0)))
 (let ((?x10234 (* 4.0 A_2)))
 (let ((?x5798 (* (- 4.0) A_4)))
 (let ((?x5797 (* 4.0 Q_4)))
 (let (($x10158 (<= (+ ?x5797 ?x5798 ?x10234 ?x2078 ?x1332 ?x3496 ?x2088 ?x1333) 0.0)))
 (let (($x51 (= L_1 L_0)))
 (let ((?x1966 (* (/ 1.0 2.0) S_4)))
 (let ((?x429 (* (- 1.0) Q_4)))
 (let ((?x1981 (* (- (/ 1.0 2.0)) A_1)))
 (let ((?x1597 (* (/ 1.0 2.0) L_1)))
 (let (($x85381 (<= 0.0 (+ ?x1597 ?x1981 ?x429 ?x1966))))
 (let (($x85382 (not $x85381)))
 (let (($x85102 (<= 0.0 (+ (* (- (/ 1.0 3.0)) S_4) ?x429 A_4 (* (- 1.0) A_2) (* (/ 1.0 3.0) S_0)))))
 (let (($x85103 (not $x85102)))
 (let ((?x1305 (* (- 2.0) A_2)))
 (let ((?x1537 (* 2.0 A_4)))
 (let ((?x1539 (* (- 2.0) Q_4)))
 (let ((?x416 (* (- 1.0) S_4)))
 (let ((?x534 (* (- 1.0) L_1)))
 (let (($x85037 (not (<= 0.0 (+ ?x534 A_1 ?x416 ?x1539 ?x1537 ?x1305)))))
 (let (($x82460 (<= 0.0 (+ ?x429 A_4 (* (- 1.0) A_3)))))
 (let (($x82725 (not $x82460)))
 (let (($x85696 (not (<= 0.0 (+ (* (- 3.0) Q_4) S_4 (* (- 1.0) A_0) L_0)))))
 (let (($x82204 (not (<= 0.0 (+ ?x429 S_4 (* (- 1.0) S_3))))))
 (let (($x10118 (<= (+ ?x416 ?x429 A_4 (* (- 1.0) A_2) A_1 ?x534) 0.0)))
 (let ((?x4219 (* (/ 1.0 4.0) S_0)))
 (let ((?x4226 (* (/ 3.0 4.0) A_4)))
 (let ((?x4228 (* (- (/ 3.0 4.0)) Q_4)))
 (let ((?x4223 (* (- (/ 3.0 4.0)) L_1)))
 (let (($x4201 (<= (+ ?x4223 ?x416 ?x4228 ?x4226 ?x4219) 0.0)))
 (let (($x86116 (not (<= 0.0 (+ (* (- 3.0) Q_4) S_4 (* (- 1.0) S_1))))))
 (let (($x85846 (not (<= 0.0 (+ (* (- 4.0) Q_4) S_4 (* (- 1.0) S_0))))))
 (let ((?x2731 (* (/ 1.0 2.0) S_2)))
 (let ((?x3186 (* (/ 1.0 2.0) A_4)))
 (let ((?x3204 (* (- (/ 1.0 2.0)) Q_4)))
 (let ((?x1983 (* (- (/ 1.0 2.0)) L_1)))
 (let (($x7415 (<= (+ ?x1983 ?x416 ?x3204 ?x3186 ?x2731) 0.0)))
 (let (($x85469 (not (<= 0.0 (+ ?x1539 S_4 (* (- 1.0) S_2))))))
 (let ((?x5569 (* (/ 1.0 3.0) S_1)))
 (let ((?x1240 (* (/ 2.0 3.0) A_4)))
 (let ((?x1253 (* (- (/ 2.0 3.0)) Q_4)))
 (let ((?x5571 (* (- (/ 2.0 3.0)) L_1)))
 (let (($x5573 (<= (+ ?x5571 ?x416 ?x1253 ?x1240 ?x5569) 0.0)))
 (let (($x84014 (<= 0.0 (+ L_1 (* (- 1.0) A_1) S_4 ?x429 A_4 (* (- 3.0) A_3) ?x1549))))
 (let (($x84089 (<= (+ ?x1983 (* (/ 1.0 2.0) A_1) (* (- (/ 1.0 2.0)) S_4)) (- 5.0))))
 (let (($x9436 (not (<= Q_4 5.0))))
 (let (($x86768 (<= (+ ?x416 ?x429 A_4 (* (- 1.0) A_3) A_1 ?x534) (- 5.0))))
 (let (($x85292 (<= (+ ?x3204 (* (- (/ 1.0 2.0)) S_4) (* (/ 1.0 2.0) A_1) ?x1983) (- 5.0))))
 (let (($x219648 (or $x5573 $x10118 (<= 0.0 (+ ?x1966 (* (- 1.0) A_4) A_3 (* (- (/ 1.0 2.0)) S_1))) $x85846)))
 (let (($x85975 (not (<= 0.0 (+ L_1 (* (- 1.0) A_3) S_3 Q_4)))))
 (let (($x84907 (<= 0.0 (+ Q_4 (* (- 1.0) A_4) A_3 (* (- 1.0) A_1) S_3 L_1))))
 (let (($x6788 (<= (+ ?x429 A_1 (* (- 1.0) S_2) ?x534) 0.0)))
 (let ((?x484 (* (- 1.0) S_1)))
 (let ((?x5767 (* 4.0 S_3)))
 (let ((?x5779 (* (- 3.0) A_4)))
 (let ((?x5766 (* 3.0 Q_4)))
 (let ((?x2261 (* 3.0 L_1)))
 (let (($x5782 (<= (+ ?x2261 ?x5766 ?x5779 ?x5767 ?x484) 0.0)))
 (let (($x6784 (<= (+ ?x1539 (* 2.0 A_1) (* (- 1.0) S_3) ?x484 (* (- 2.0) L_1)) 0.0)))
 (let ((?x1316 (* (- 2.0) L_1)))
 (let ((?x462 (* (- 1.0) S_3)))
 (let ((?x991 (* (- 1.0) A_0)))
 (let ((?x2073 (* 2.0 A_1)))
 (let (($x6602 (<= (+ ?x1539 ?x2073 ?x991 ?x462 ?x1316 L_0) 0.0)))
 (let ((?x1061 (* (- 1.0) S_0)))
 (let ((?x1680 (* 2.0 S_1)))
 (let ((?x445 (* (- 1.0) A_1)))
 (let ((?x433 (* (- 1.0) A_4)))
 (let (($x25088 (<= (+ Q_4 ?x433 A_2 ?x445 ?x1680 ?x1061 L_1) 0.0)))
 (let (($x13605 (<= (+ ?x416 ?x1539 ?x1537 (* (- 2.0) A_3) ?x2073 (* (- 1.0) S_2) ?x1316) 0.0)))
 (let ((?x2084 (* (- 3.0) L_1)))
 (let ((?x2130 (* 3.0 A_1)))
 (let ((?x1769 (* (- 3.0) A_3)))
 (let ((?x5784 (* 3.0 A_4)))
 (let ((?x5775 (* (- 3.0) Q_4)))
 (let ((?x1538 (* (- 2.0) S_4)))
 (let (($x14952 (<= (+ ?x1538 ?x5775 ?x5784 ?x1769 ?x2130 ?x991 ?x2084 L_0) 0.0)))
 (let ((?x1890 (* (- (/ 3.0 2.0)) L_1)))
 (let ((?x1938 (* (/ 3.0 2.0) A_1)))
 (let ((?x2058 (* (- (/ 1.0 2.0)) S_4)))
 (let ((?x8733 (* (- (/ 3.0 2.0)) Q_4)))
 (let (($x9721 (<= (+ ?x8733 ?x2058 ?x1938 ?x991 ?x1890 L_0) 0.0)))
 (let (($x24886 (<= (+ Q_4 ?x433 A_2 ?x445 ?x1332 (* 3.0 S_1) L_1 ?x1333) 0.0)))
 (let (($x8195 (<= (+ ?x1538 ?x5775 ?x5784 ?x1769 ?x2130 ?x484 ?x2084) 0.0)))
 (let (($x7074 (<= (+ ?x8733 ?x2058 ?x1938 ?x484 ?x1890) 0.0)))
 (let ((?x2355 (* (- 4.0) L_1)))
 (let ((?x2353 (* 4.0 A_1)))
 (let ((?x11880 (* (- 4.0) A_3)))
 (let ((?x5865 (* 4.0 A_4)))
 (let ((?x5867 (* (- 4.0) Q_4)))
 (let ((?x3005 (* (- 3.0) S_4)))
 (let (($x19419 (<= (+ ?x3005 ?x5867 ?x5865 ?x11880 ?x2353 ?x1061 ?x2355) 0.0)))
 (let (($x9980 (<= (+ ?x1539 ?x416 ?x2073 ?x1061 ?x1316) 0.0)))
 (let (($x25186 (<= (+ ?x1283 ?x5766 ?x5779 (* 3.0 A_2) (* (- 3.0) A_1) S_1 ?x2261) 0.0)))
 (let (($x6745 (<= (+ ?x5775 ?x2130 (* (- 2.0) S_3) ?x1061 ?x2084) 0.0)))
 (let ((?x32199 (* (- (/ 4.0 3.0)) L_1)))
 (let ((?x959 (* (/ 2.0 3.0) S_0)))
 (let ((?x1319 (* (- 2.0) S_3)))
 (let ((?x1318 (* (/ 4.0 3.0) A_1)))
 (let ((?x32186 (* (- (/ 4.0 3.0)) A_2)))
 (let ((?x1342 (* (/ 4.0 3.0) A_4)))
 (let ((?x1341 (* (- (/ 4.0 3.0)) Q_4)))
 (let (($x32191 (<= (+ ?x1341 ?x1342 ?x32186 ?x1318 ?x1319 ?x959 ?x32199) 0.0)))
 (let (($x4232 (<= (+ ?x1983 ?x3204 ?x3186 ?x462 (* (/ 1.0 2.0) S_0)) 0.0)))
 (let (($x25193 (<= (+ ?x429 A_4 (* (- 1.0) A_2) A_1 ?x1319 S_1 ?x534) 0.0)))
 (let ((?x5559 (* (/ 2.0 3.0) S_1)))
 (let ((?x1338 (* (/ 1.0 3.0) A_4)))
 (let ((?x1337 (* (- (/ 1.0 3.0)) Q_4)))
 (let ((?x5095 (* (- (/ 1.0 3.0)) L_1)))
 (let (($x5557 (<= (+ ?x5095 ?x1337 ?x1338 ?x462 ?x5559) 0.0)))
 (let ((?x1313 (* (- (/ 2.0 3.0)) A_4)))
 (let ((?x1312 (* (/ 2.0 3.0) Q_4)))
 (let ((?x5572 (* (/ 2.0 3.0) L_1)))
 (let (($x5584 (<= (+ ?x5572 ?x1312 ?x1313 (* (/ 5.0 3.0) S_1) ?x1061) 0.0)))
 (let (($x87546 (<= 0.0 (+ S_4 Q_4 ?x433 A_3 (* (- 2.0) A_1) S_1 (* 2.0 L_1)))))
 (let (($x6802 (<= (+ ?x1539 S_4 ?x2073 (* (- 3.0) S_3) ?x1316) 0.0)))
 (let (($x103254 (or $x4232 $x6802 (not (<= 0.0 (+ L_1 Q_4 (* (- 1.0) A_2) S_3))) $x84907)))
 (let ((?x2150 (* (/ 3.0 2.0) L_1)))
 (let ((?x2640 (* (/ 1.0 2.0) S_0)))
 (let ((?x2149 (* (- (/ 3.0 2.0)) A_1)))
 (let ((?x3185 (* (/ 1.0 2.0) A_3)))
 (let ((?x3189 (* (- (/ 1.0 2.0)) A_4)))
 (let ((?x3181 (* (/ 1.0 2.0) Q_4)))
 (let ((?x32210 (* (/ 8.0 3.0) L_1)))
 (let ((?x1498 (* (- (/ 8.0 3.0)) A_1)))
 (let ((?x32205 (+ ?x1283 (* (/ 8.0 3.0) Q_4) (* (- (/ 8.0 3.0)) A_4) (* (/ 8.0 3.0) A_2) ?x1498 ?x959 ?x32210)))
 (let (($x87944 (not (<= 0.0 (+ S_4 ?x429 A_4 (* (- 1.0) A_2) ?x1319 S_0)))))
 (let (($x84998 (<= 0.0 (+ S_4 ?x429 A_4 (* (- 1.0) A_3) (* (- (/ 3.0 2.0)) S_3) ?x2640))))
 (let (($x83604 (not (<= 0.0 (+ ?x534 A_1 S_4 ?x429 A_4 (* (- 1.0) A_3) ?x1319)))))
 (let (($x77044 (not (<= 0.0 (+ ?x2355 ?x2353 ?x1283 ?x1539 ?x1537 ?x1305 (* (- 6.0) S_3))))))
 (let (($x109824 (or $x393 $x825 (<= (+ ?x5797 ?x5798 ?x10234 ?x2078 ?x3496 (* (- 2.0) S_1) ?x2088) 0.0))))
 (let (($x85647 (not (<= 0.0 (+ ?x416 ?x429 A_4 (* (- 1.0) A_2) S_2)))))
 (let (($x85353 (<= (+ ?x1271 ?x1098 ?x1549 (* (- 2.0) A_1) ?x1323 (* 2.0 L_1)) (- 10.0))))
 (let ((?x5564 (* (- (/ 1.0 3.0)) A_4)))
 (let ((?x5268 (* (/ 1.0 3.0) Q_4)))
 (let ((?x5562 (* (/ 1.0 3.0) L_1)))
 (let (($x46369 (or $x825 (<= (+ ?x5562 ?x5268 ?x5564 ?x991 (* (/ 4.0 3.0) S_1) L_0) 0.0))))
 (let (($x105994 (or $x51 (<= (+ ?x2150 (* (/ 3.0 2.0) Q_4) ?x3189 ?x445 (* (/ 3.0 2.0) S_2)) 0.0))))
 (let (($x6415 (<= (+ A_4 (* (- 1.0) A_3) (* (- (/ 1.0 2.0)) S_3) ?x2640) 0.0)))
 (let (($x10166 (<= (+ ?x1271 ?x433 A_2 (* (- 2.0) A_1) ?x1323 (* 2.0 L_1)) 0.0)))
 (let (($x89656 (not (<= 0.0 (+ ?x1283 ?x1312 ?x1313 (* (/ 2.0 3.0) A_2) ?x1498 ?x959 ?x32210)))))
 (let ((?x4646 (* 4.0 S_2)))
 (let ((?x2259 (* (- 3.0) A_1)))
 (let ((?x570 (* 3.0 A_2)))
 (let ((?x473 (* (- 1.0) S_2)))
 (let ((?x1267 (* (/ 1.0 3.0) A_1)))
 (let ((?x32187 (* (- (/ 1.0 3.0)) A_2)))
 (let (($x32189 (<= (+ ?x1337 ?x1338 ?x32187 ?x1267 ?x473 ?x959 ?x5095) 0.0)))
 (let (($x17651 (<= (+ ?x3204 ?x3186 (* (- (/ 1.0 2.0)) A_3) (* (/ 1.0 2.0) A_1) ?x473 ?x2640 ?x1983) 0.0)))
 (let ((?x4238 (* (/ 3.0 4.0) S_0)))
 (let ((?x4237 (* (/ 1.0 4.0) A_4)))
 (let ((?x4236 (* (- (/ 1.0 4.0)) Q_4)))
 (let ((?x4235 (* (- (/ 1.0 4.0)) L_1)))
 (let (($x4240 (<= (+ ?x4235 ?x4236 ?x4237 ?x473 ?x4238) 0.0)))
 (let (($x86473 (not (<= 0.0 (+ Q_4 S_4 (* (- 2.0) A_1) S_0 (* 2.0 L_1))))))
 (let (($x89895 (<= (+ ?x1312 ?x1313 (* (/ 2.0 3.0) A_2) (* (- (/ 2.0 3.0)) A_1) ?x959 ?x5572) (- 10.0))))
 (let (($x89972 (not (<= 0.0 (+ ?x1283 (* (- 2.0) A_1) ?x462 S_0 (* 2.0 L_1))))))
 (let (($x101678 (or $x51 $x825 (not (<= 0.0 (+ ?x1283 Q_4 ?x433 A_2 ?x2259 S_1 ?x2261))))))
 (let (($x105412 (or $x51 (<= (+ S_4 ?x5766 ?x5779 (* 3.0 A_3) ?x2259 ?x1680 ?x2261) 0.0))))
 (let ((?x2260 (* 2.0 S_0)))
 (let ((?x3432 (* (- 3.0) S_2)))
 (let ((?x437 (* (- 1.0) A_3)))
 (let ((?x2090 (* 3.0 S_0)))
 (let ((?x4632 (* (- 4.0) S_2)))
 (let ((?x441 (* (- 1.0) A_2)))
 (let (($x1327 (<= (+ ?x534 A_1 ?x473) 0.0)))
 (let (($x106600 (or $x1327 (not (<= 0.0 (+ S_4 ?x429 A_4 ?x441 ?x4632 ?x2090))) (not (<= 0.0 (+ ?x429 S_4 (* (- 2.0) S_2) S_0))) (not (<= 0.0 (+ S_4 ?x429 A_4 ?x437 ?x3432 ?x2260))))))
 (let (($x84671 (<= (+ (* (/ 1.0 4.0) L_1) (* (/ 1.0 4.0) Q_4) (* (- (/ 1.0 4.0)) A_4) ?x4219) (- 5.0))))
 (let (($x83336 (<= (+ Q_4 ?x433 A_1) (- 15.0))))
 (let ((?x1308 (* 2.0 L_1)))
 (let ((?x1662 (* 3.0 S_1)))
 (let ((?x2254 (* (- 2.0) A_1)))
 (let ((?x1349 (* 2.0 A_3)))
 (let (($x104323 (or $x51 (<= (+ Q_4 ?x433 A_3 ?x445 ?x991 ?x1680 L_1 L_0) 0.0))))
 (let (($x7715 (<= (+ ?x2150 (* (/ 3.0 2.0) Q_4) (* (- (/ 3.0 2.0)) A_4) (* (/ 5.0 2.0) S_2) ?x1061) 0.0)))
 (let (($x1569 (not (<= Q_4 0.0))))
 (let (($x1374 (<= (+ ?x2084 ?x2130 ?x1319 ?x1061) 0.0)))
 (let (($x85168 (<= 0.0 (+ ?x1283 ?x1539 ?x1537 ?x1305 (* (- 6.0) S_3) (* 4.0 S_1)))))
 (let (($x110439 (or $x82204 (not (<= 0.0 (+ S_4 ?x429 A_4 ?x437 ?x1319 S_1))) (not $x85168))))
 (let ((?x3182 (* (- (/ 3.0 2.0)) A_4)))
 (let ((?x3200 (* (/ 3.0 2.0) Q_4)))
 (let (($x104939 (or $x51 (<= (+ ?x3200 ?x3182 (* (/ 3.0 2.0) A_3) ?x2149 S_3 ?x2640 ?x2150) 0.0))))
 (let ((?x3152 (* 6.0 S_3)))
 (let ((?x1968 (* 3.0 A_3)))
 (let ((?x18963 (+ (* 6.0 L_1) (* 6.0 Q_4) (* (- 6.0) A_4) ?x1968 ?x2259 ?x3152)))
 (let (($x101402 (or (<= (+ ?x1316 ?x2073 S_4 (* (- 3.0) S_3)) 0.0) (<= (+ ?x1966 ?x462 ?x2640) 0.0))))
 (let (($x84847 (or (<= (+ ?x534 A_1 ?x462) (- 5.0)) (<= (+ (* (- (/ 1.0 2.0)) S_3) ?x2640) (- 5.0)))))
 (let (($x325 (or $x825 $x1569)))
 (let (($x108 (>= S_1 S_0)))
 (let (($x111 (>= S_2 S_1)))
 (let (($x114 (>= S_3 S_2)))
 (let (($x117 (>= S_4 S_3)))
 (let (($x119 (>= A_1 A_0)))
 (let (($x120 (>= A_2 A_1)))
 (let (($x121 (>= A_3 A_2)))
 (let (($x122 (>= A_4 A_3)))
 (and $x122 $x121 $x120 $x119 $x117 $x114 $x111 $x108 (or $x51 (not $x393)) $x325 (or $x1327 (<= (+ ?x473 S_0) (- 5.0))) (or (<= (+ (* (- (/ 1.0 3.0)) S_4) (* (/ 1.0 3.0) S_0)) (- 5.0)) $x84089) (or $x82460 (<= (+ ?x5562 ?x5268 ?x5564 ?x5569) (- 5.0))) $x84847 $x101402 (<= (+ ?x1319 ?x1662 ?x1061) 0.0) (or $x51 (<= (+ Q_4 ?x445 S_1 L_1) 0.0)) (<= (+ ?x991 ?x462 ?x1680 L_0) 0.0) (or $x825 (<= (+ ?x1597 ?x3181 ?x3189 ?x2731) (- 5.0))) (<= (+ ?x1597 ?x1981 ?x2058 S_2) 0.0) (<= (+ ?x1538 ?x991 (* 3.0 S_2) L_0) 0.0) (or $x825 (<= (+ L_1 Q_4 ?x433 S_3) (- 5.0))) (or $x825 (<= (+ ?x1308 ?x1271 ?x1098 (* 3.0 S_3) ?x473) 0.0)) (or $x1569 $x85647) (<= (+ ?x416 ?x1680 ?x1061) 0.0) (or $x82725 $x85469 $x85647) (or $x82725 $x85382 $x85647) (or $x82725 $x85647 $x85846) (or $x51 (<= (+ ?x1271 ?x1098 ?x1349 ?x2254 ?x1323 ?x1308) 0.0)) (or $x51 (<= (+ ?x1271 ?x2254 S_2 S_0 ?x1308) 0.0)) (or $x51 (<= (+ Q_4 ?x445 S_0 L_1) (- 5.0))) (or $x51 (<= (+ S_4 ?x1271 ?x1098 ?x1349 ?x2254 S_0 ?x1308) 0.0)) (or $x51 (<= ?x18963 0.0) $x82460) $x104939 (or $x1327 (<= (+ (* (/ 1.0 3.0) S_3) ?x473 ?x959) 0.0)) (or $x51 (not $x1327)) (or $x825 (<= (+ ?x5562 ?x5268 ?x5564 ?x5569) (- 5.0))) (or $x51 (<= (+ ?x3181 ?x2058 ?x1981 S_2 ?x1597) 0.0)) (or $x82460 (<= (+ ?x2261 ?x1271 ?x1098 ?x445 (* 3.0 S_3)) 0.0)) (or $x1569 $x5557 $x25193) (or $x51 (not (<= 0.0 (+ S_4 ?x445 ?x462 S_1 L_1)))) (or $x51 (not (<= 0.0 (+ ?x1966 ?x445 (* (/ 1.0 2.0) S_1) L_1)))) (or $x825 (<= (+ ?x2088 ?x5797 ?x5798 (* 5.0 S_3) ?x1061) 0.0)) (or $x825 (<= (+ ?x2261 ?x5766 ?x5779 ?x991 ?x5767 L_0) 0.0)) (or $x82460 $x5584) (or $x82460 $x5782) (or $x51 $x825 (<= (+ Q_4 ?x433 A_2 ?x445 S_3 L_1) 0.0)) $x110439 (or $x6745 $x7415 $x10118 $x84907) (or $x51 (<= (+ ?x1271 ?x1098 ?x1349 ?x2254 S_3 S_1 ?x1308) 0.0)) (<= (+ ?x2058 ?x991 (* (/ 3.0 2.0) S_1) L_0) 0.0) (or $x1569 (not (<= 0.0 (+ ?x416 ?x1539 ?x1537 ?x1305 S_1)))) (or $x1327 $x1569 (not (<= 0.0 (+ S_4 A_4 ?x441 ?x4632 ?x2090)))) (or $x1327 (<= (+ (* (/ 1.0 4.0) S_4) ?x473 ?x4238) 0.0)) (or $x51 (<= (+ ?x5797 S_4 ?x2078 ?x2090 ?x2088) 0.0)) (<= (+ (* (/ 1.0 3.0) S_4) ?x462 ?x5559) 0.0) (or $x5782 $x85975) (or $x1569 $x85037 $x85103) (or $x1374 $x1569 $x4240 $x32189) (or $x1569 $x4201 $x10118) (or $x82725 $x85647 $x85696) (or $x825 $x7715) (or $x825 (<= (+ L_1 Q_4 ?x433 ?x991 ?x1323 L_0) 0.0)) (or $x825 (<= (+ ?x2261 Q_4 ?x433 ?x2254 (* 3.0 S_2)) 0.0)) (or (<= (+ ?x2261 ?x1271 ?x1098 ?x445 (* 3.0 S_3)) 0.0) $x85975) (or $x51 (<= (+ Q_4 ?x433 A_3 ?x445 S_1 L_1) (- 5.0))) $x104323 (or $x51 (<= (+ ?x1271 ?x1098 ?x1349 ?x2254 ?x1662 ?x1061 ?x1308) 0.0)) (or $x1569 $x77044 $x87944) (or $x5573 $x10118 $x82725 $x86116) (or $x1569 $x7415 $x10118) (or $x82460 $x83336 $x84671) (or $x825 $x83336 $x84671) $x106600 (or $x51 (not $x1374)) (or $x51 (not (<= 0.0 (+ ?x1283 ?x2259 S_0 ?x2261)))) (or $x51 (not (<= 0.0 (+ S_4 ?x445 ?x473 S_0 L_1)))) (or $x51 (<= (+ ?x2261 ?x5766 ?x1098 ?x445 (* 3.0 S_3)) 0.0) $x85975) $x105412 $x101678 (or $x51 $x825 (<= (+ Q_4 ?x433 A_2 ?x445 S_1 L_1) (- 10.0))) (or $x51 $x89972) (or $x82725 $x85382 (not (<= 0.0 (+ ?x416 ?x1539 ?x1537 ?x1305 S_1)))) (or $x51 $x825 $x89895) (or $x51 (<= (+ ?x3181 ?x3189 ?x3185 ?x1981 ?x2640 ?x1597) (- 5.0))) (or $x51 $x86473) (or $x51 (<= (+ ?x5766 ?x2259 S_3 ?x2260 ?x2261) 0.0)) (or $x7415 $x10118 $x85292 $x86768) (or $x4201 $x9721 $x10118 $x14952) (or $x9436 $x82725 $x85647) (or $x7415 $x9436 $x10118 $x82725) (or $x9436 $x82725 (not (<= 0.0 (+ ?x416 ?x1539 ?x1537 ?x1305 S_1)))) (or $x4240 $x6788 $x17651 $x32189) (or $x51 $x825 (<= (+ ?x5766 ?x5779 ?x570 ?x2259 ?x4646 ?x1061 ?x2261) 0.0)) (or $x51 $x825 $x89656) (or $x4232 $x6784 $x32191 $x84907) (or $x51 $x10166) (or $x4232 $x6415 $x6602 $x32191) (or $x4232 $x6415 $x6802 $x32191) (or $x82725 $x85647 $x86116) (or $x7415 $x8195 $x9980 $x10118) (or $x393 $x7415 $x10118 $x82725 (not (<= 0.0 (+ ?x3204 ?x1966 ?x1981 ?x1597)))) $x105994 $x46369 (or $x51 $x825 $x85353) (or $x5557 $x6788 $x25193 $x84907) (or $x5557 $x6602 $x25193 $x84907) (or $x5557 $x6802 $x25193 $x84907) (or $x5557 $x25193 $x84907 (<= (+ ?x429 A_1 ?x462 ?x534) (- 5.0))) (or $x5557 $x25193 $x82204 $x84907) (or $x82204 $x82725 (not (<= 0.0 (+ ?x416 ?x1539 ?x1537 ?x1305 S_1)))) (or $x82204 $x82725 $x85647) (or $x5573 $x6788 $x10118 $x82725) (or $x4201 $x6788 $x10118 $x13605) (or $x4201 $x10118 $x82725 $x85469) $x109824 (or $x82204 $x82725 $x85037 $x85103) (or $x77044 $x82204 $x83604 (not $x84998) $x87944) (or $x51 (<= ?x32205 0.0) $x82460) (or $x51 (not (<= 0.0 (+ S_4 ?x3181 ?x3189 ?x3185 ?x2149 ?x2640 ?x2150)))) (or $x82725 $x85696 (not (<= 0.0 (+ ?x416 ?x1539 ?x1537 ?x1305 S_1)))) $x103254 (or $x4232 $x6602 $x32191 $x84907) (or $x4232 $x6802 $x32191 $x84907) (or $x4232 $x32191 $x84907 (<= (+ ?x429 A_1 ?x462 ?x534) (- 5.0))) (or $x393 (not $x87546)) (or $x84907 (<= (+ ?x429 A_1 ?x462 ?x534) (- 5.0)) $x7415 $x10118) (or $x5573 $x6602 $x10118 $x84907) (or $x5573 $x10118 $x82204 $x84907) (or $x7415 $x9721 $x10118 $x14952) (or $x4201 $x9980 $x10118 $x19419) (or $x51 $x25088 $x82460) (or $x51 $x24886 $x82460) (or $x7415 $x10118 $x82725 $x85846) (or $x7415 $x10118 $x82725 $x86116) (or $x4201 $x10118 $x85292 $x86768) (or $x5573 $x9980 $x10118 $x82725) (or $x7074 $x7415 $x10118 $x19419) (or $x5573 $x9721 $x10118 $x82725) (or $x5573 $x10118 $x19419 $x85292) (or $x5573 $x6745 $x10118 $x84907) (or $x4232 $x32191 $x82204 $x84907) (or $x4232 $x6788 $x32191 $x84907) (or $x82725 $x85469 (not (<= 0.0 (+ ?x416 ?x1539 ?x1537 ?x1305 S_1)))) (or $x825 $x5584) (or $x5573 $x9436 $x10118 $x82725) (or $x5557 $x6745 $x25193 $x84907) (or $x4232 $x6745 $x32191 $x84907) (or $x4201 $x10118 $x84907 (<= (+ ?x429 A_1 ?x462 ?x534) (- 5.0))) (or $x5573 $x6788 $x10118 $x84907) (or $x4201 $x6745 $x10118 $x84907) (or $x7415 $x10118 $x82725 $x85696) (or $x7415 $x9980 $x10118 $x19419) (or $x7074 $x7415 $x8195 $x10118) (or $x393 $x825 $x25186) (or $x6784 $x7415 $x10118 $x84907) (or $x6602 $x7415 $x10118 $x84907) (or $x4201 $x7074 $x10118 $x82725) (or $x5573 $x9980 $x10118 $x19419) (or $x4201 $x7074 $x8195 $x10118) (or $x393 $x825 (<= (+ ?x1283 ?x5797 ?x5798 ?x10234 ?x2078 ?x1323 ?x2088) 0.0)) (or $x825 (<= (+ ?x2261 ?x1271 ?x1098 ?x445 (* 3.0 S_3)) 0.0)) (or $x51 $x825 $x24886) (or $x5573 $x9721 $x10118 $x14952) (or $x5573 $x6788 $x10118 $x13605) (or $x5573 $x10118 (not (<= (- 5.0) (+ ?x437 A_2))) $x85292) (or $x825 (<= (+ L_1 Q_4 ?x433 ?x1323 ?x484) 0.0)) (or $x393 $x825 $x25088) (or $x5573 $x10118 $x84907 (<= (+ ?x429 A_1 ?x462 ?x534) (- 5.0))) (or $x393 $x4201 $x10118 $x82725 (not (<= 0.0 (+ ?x3204 ?x1966 ?x1981 ?x1597)))) (or $x4201 $x6602 $x10118 $x84907) (or $x4201 $x6784 $x10118 $x84907) (or $x825 $x5782) (or $x4201 $x10118 $x82204 $x84907) (or $x7415 $x10118 $x82204 $x84907) (or $x9436 (not (<= (- 5.0) (+ ?x437 A_2))) $x85037 $x85103) (or $x51 $x10158 $x82460) (or $x4201 $x6788 $x10118 $x84907) (or $x4201 $x9436 $x10118 $x86768) (or $x4201 $x9436 $x10118 $x82725) (or $x4201 $x10118 $x85975 $x86116) (or $x4201 $x10118 $x82725 $x86116) (or $x4201 $x10118 $x85846 $x85975) $x219648 (or $x5573 $x10118 $x82725 $x85696) (or $x82725 $x85846 (not (<= 0.0 (+ ?x416 ?x1539 ?x1537 ?x1305 S_1)))) (or $x5573 $x10118 $x85292 $x86768) (or $x393 $x5573 $x10118 $x82725 (not (<= 0.0 (+ ?x3204 ?x1966 ?x1981 ?x1597)))) (or $x9436 $x82725 $x84089 $x85103) (or $x5573 $x10118 $x82204 $x82725) (or $x4201 $x10118 $x82725 $x85696) (or (not $x84014) $x85037 $x85103 $x86116) (or $x82725 $x85103 $x85381 $x85846) (or $x82725 $x85037 $x85103 $x85469) (or $x5573 $x10118 $x82725 $x85846) (or $x5573 $x10118 $x82725 $x85469) (or $x7415 $x10118 $x82204 $x82725) (or $x4201 $x10118 $x82725 $x85846) (or $x82725 $x85037 $x85103 $x86116) (or $x4201 $x10118 $x82204 $x82725) (or $x82725 $x85037 $x85103 $x85696) (or $x82725 $x85037 $x85103 $x85382) (or $x51 $x825 $x10158) $x114580 $x34 (<= (+ ?x991 S_0 L_0) 0.0) (not (>= (+ L_1 ?x441 S_4) 0.0)) (<= (+ ?x462 S_1) (- 5.0)) (<= (+ L_1 ?x445 S_1) 0.0) (<= (+ L_1 S_4 Q_4 ?x433) 0.0) (<= (+ ?x2058 (* (/ 1.0 2.0) S_1)) (- 5.0)) (<= (+ ?x416 S_2) (- 5.0)) (<= (+ ?x1538 (* 3.0 S_2) ?x484) 0.0) (<= (+ ?x3005 ?x4646 ?x1061) 0.0))))))))))))))))))))))))))))))))))))))))))))))))))))))))))))))))))))))))))))))))))))))))))))))))))))))))))))))))))))))))))))))))))))))))))))))))))))))))))))))))))))))))))))))))))))))))))))))))))))))))))))))))))))
(check-sat)
